p cnf 963 2472
51 -2 -696 0
-51 2 0
-51 696 0
52 -51 -3 0
-52 51 0
-52 3 0
53 -5 -697 0
-53 5 0
-53 697 0
54 -53 -6 0
-54 53 0
-54 6 0
55 -698 -699 0
-55 698 0
-55 699 0
56 -8 -700 0
-56 8 0
-56 700 0
57 -56 -701 0
-57 56 0
-57 701 0
58 -702 -55 0
-58 702 0
-58 55 0
59 -703 -701 0
-59 703 0
-59 701 0
60 -59 -11 0
-60 59 0
-60 11 0
61 -704 -58 0
-61 704 0
-61 58 0
62 -13 -12 0
-62 13 0
-62 12 0
63 -62 -705 0
-63 62 0
-63 705 0
64 -706 -61 0
-64 706 0
-64 61 0
65 -707 -708 0
-65 707 0
-65 708 0
66 -65 -709 0
-66 65 0
-66 709 0
67 -710 -64 0
-67 710 0
-67 64 0
68 -19 -711 0
-68 19 0
-68 711 0
69 -68 -712 0
-69 68 0
-69 712 0
70 -713 -67 0
-70 713 0
-70 67 0
71 -714 -2 0
-71 714 0
-71 2 0
72 -71 -715 0
-72 71 0
-72 715 0
73 -716 -70 0
-73 716 0
-73 70 0
74 -717 -718 0
-74 717 0
-74 718 0
75 -74 -24 0
-75 74 0
-75 24 0
76 -719 -73 0
-76 719 0
-76 73 0
77 -720 -721 0
-77 720 0
-77 721 0
78 -77 -2 0
-78 77 0
-78 2 0
79 -722 -76 0
-79 722 0
-79 76 0
80 -27 -25 0
-80 27 0
-80 25 0
81 -80 -2 0
-81 80 0
-81 2 0
82 -723 -79 0
-82 723 0
-82 79 0
83 -714 -11 0
-83 714 0
-83 11 0
84 -83 -22 0
-84 83 0
-84 22 0
85 -724 -82 0
-85 724 0
-85 82 0
86 -725 -726 0
-86 725 0
-86 726 0
87 -86 -727 0
-87 86 0
-87 727 0
88 -728 -85 0
-88 728 0
-88 85 0
89 -729 -730 0
-89 729 0
-89 730 0
90 -89 -721 0
-90 89 0
-90 721 0
91 -731 -88 0
-91 731 0
-91 88 0
92 -10 -5 0
-92 10 0
-92 5 0
93 -92 -32 0
-93 92 0
-93 32 0
94 -732 -91 0
-94 732 0
-94 91 0
95 -33 -21 0
-95 33 0
-95 21 0
96 -95 -733 0
-96 95 0
-96 733 0
97 -734 -94 0
-97 734 0
-97 94 0
98 -34 -21 0
-98 34 0
-98 21 0
99 -98 -735 0
-99 98 0
-99 735 0
100 -736 -97 0
-100 736 0
-100 97 0
101 -727 -1 0
-101 727 0
-101 1 0
102 -101 -737 0
-102 101 0
-102 737 0
103 -738 -100 0
-103 738 0
-103 100 0
104 -16 -696 0
-104 16 0
-104 696 0
105 -104 -739 0
-105 104 0
-105 739 0
106 -740 -103 0
-106 740 0
-106 103 0
107 -26 -20 0
-107 26 0
-107 20 0
108 -107 -36 0
-108 107 0
-108 36 0
109 -741 -106 0
-109 741 0
-109 106 0
110 -730 -703 0
-110 730 0
-110 703 0
111 -110 -742 0
-111 110 0
-111 742 0
112 -743 -109 0
-112 743 0
-112 109 0
113 -721 -703 0
-113 721 0
-113 703 0
114 -113 -744 0
-114 113 0
-114 744 0
115 -745 -112 0
-115 745 0
-115 112 0
116 -38 -7 0
-116 38 0
-116 7 0
117 -116 -746 0
-117 116 0
-117 746 0
118 -747 -115 0
-118 747 0
-118 115 0
119 -714 -700 0
-119 714 0
-119 700 0
120 -119 -697 0
-120 119 0
-120 697 0
121 -748 -118 0
-121 748 0
-121 118 0
122 -33 -28 0
-122 33 0
-122 28 0
123 -122 -749 0
-123 122 0
-123 749 0
124 -750 -121 0
-124 750 0
-124 121 0
125 -20 -9 0
-125 20 0
-125 9 0
126 -125 -751 0
-126 125 0
-126 751 0
127 -752 -124 0
-127 752 0
-127 124 0
128 -40 -729 0
-128 40 0
-128 729 0
129 -128 -37 0
-129 128 0
-129 37 0
130 -753 -127 0
-130 753 0
-130 127 0
131 -41 -2 0
-131 41 0
-131 2 0
132 -131 -24 0
-132 131 0
-132 24 0
133 -754 -130 0
-133 754 0
-133 130 0
134 -705 -742 0
-134 705 0
-134 742 0
135 -134 -755 0
-135 134 0
-135 755 0
136 -756 -133 0
-136 756 0
-136 133 0
137 -42 -27 0
-137 42 0
-137 27 0
138 -137 -43 0
-138 137 0
-138 43 0
139 -757 -136 0
-139 757 0
-139 136 0
140 -12 -727 0
-140 12 0
-140 727 0
141 -140 -712 0
-141 140 0
-141 712 0
142 -758 -139 0
-142 758 0
-142 139 0
143 -38 -701 0
-143 38 0
-143 701 0
144 -143 -3 0
-144 143 0
-144 3 0
145 -759 -142 0
-145 759 0
-145 142 0
146 -44 -729 0
-146 44 0
-146 729 0
147 -146 -15 0
-147 146 0
-147 15 0
148 -760 -145 0
-148 760 0
-148 145 0
149 -45 -761 0
-149 45 0
-149 761 0
150 -149 -35 0
-150 149 0
-150 35 0
151 -762 -148 0
-151 762 0
-151 148 0
152 -46 -720 0
-152 46 0
-152 720 0
153 -152 -709 0
-153 152 0
-153 709 0
154 -763 -151 0
-154 763 0
-154 151 0
155 -25 -700 0
-155 25 0
-155 700 0
156 -155 -23 0
-156 155 0
-156 23 0
157 -764 -154 0
-157 764 0
-157 154 0
158 -749 -1 0
-158 749 0
-158 1 0
159 -158 -742 0
-159 158 0
-159 742 0
160 -765 -157 0
-160 765 0
-160 157 0
161 -45 -7 0
-161 45 0
-161 7 0
162 -161 -32 0
-162 161 0
-162 32 0
163 -766 -160 0
-163 766 0
-163 160 0
164 -725 -767 0
-164 725 0
-164 767 0
165 -164 -768 0
-165 164 0
-165 768 0
166 -769 -163 0
-166 769 0
-166 163 0
167 -751 -31 0
-167 751 0
-167 31 0
168 -167 -737 0
-168 167 0
-168 737 0
169 -770 -166 0
-169 770 0
-169 166 0
170 -36 -737 0
-170 36 0
-170 737 0
171 -170 -746 0
-171 170 0
-171 746 0
172 -771 -169 0
-172 771 0
-172 169 0
173 -772 -46 0
-173 772 0
-173 46 0
174 -173 -751 0
-174 173 0
-174 751 0
175 -773 -172 0
-175 773 0
-175 172 0
176 -34 -726 0
-176 34 0
-176 726 0
177 -176 -25 0
-177 176 0
-177 25 0
178 -774 -175 0
-178 774 0
-178 175 0
179 -47 -7 0
-179 47 0
-179 7 0
180 -179 -45 0
-180 179 0
-180 45 0
181 -775 -178 0
-181 775 0
-181 178 0
182 -26 -776 0
-182 26 0
-182 776 0
183 -182 -36 0
-183 182 0
-183 36 0
184 -777 -181 0
-184 777 0
-184 181 0
185 -43 -703 0
-185 43 0
-185 703 0
186 -185 -39 0
-186 185 0
-186 39 0
187 -778 -184 0
-187 778 0
-187 184 0
188 -48 -696 0
-188 48 0
-188 696 0
189 -188 -2 0
-189 188 0
-189 2 0
190 -779 -187 0
-190 779 0
-190 187 0
191 -34 -714 0
-191 34 0
-191 714 0
192 -191 -26 0
-192 191 0
-192 26 0
193 -780 -190 0
-193 780 0
-193 190 0
194 -720 -7 0
-194 720 0
-194 7 0
195 -194 -24 0
-195 194 0
-195 24 0
196 -781 -193 0
-196 781 0
-196 193 0
197 -7 -3 0
-197 7 0
-197 3 0
198 -197 -24 0
-198 197 0
-198 24 0
199 -782 -196 0
-199 782 0
-199 196 0
200 -729 -733 0
-200 729 0
-200 733 0
201 -200 -746 0
-201 200 0
-201 746 0
202 -783 -199 0
-202 783 0
-202 199 0
203 -43 -730 0
-203 43 0
-203 730 0
204 -203 -17 0
-204 203 0
-204 17 0
205 -784 -202 0
-205 784 0
-205 202 0
206 -749 -35 0
-206 749 0
-206 35 0
207 -206 -24 0
-207 206 0
-207 24 0
208 -785 -205 0
-208 785 0
-208 205 0
209 -786 -26 0
-209 786 0
-209 26 0
210 -209 -49 0
-210 209 0
-210 49 0
211 -787 -208 0
-211 787 0
-211 208 0
212 -45 -744 0
-212 45 0
-212 744 0
213 -212 -35 0
-213 212 0
-213 35 0
214 -788 -211 0
-214 788 0
-214 211 0
215 -26 -9 0
-215 26 0
-215 9 0
216 -215 -23 0
-216 215 0
-216 23 0
217 -789 -214 0
-217 789 0
-217 214 0
218 -14 -700 0
-218 14 0
-218 700 0
219 -218 -737 0
-219 218 0
-219 737 0
220 -790 -217 0
-220 790 0
-220 217 0
221 -40 -38 0
-221 40 0
-221 38 0
222 -221 -17 0
-222 221 0
-222 17 0
223 -791 -220 0
-223 791 0
-223 220 0
224 -45 -15 0
-224 45 0
-224 15 0
225 -224 -697 0
-225 224 0
-225 697 0
226 -792 -223 0
-226 792 0
-226 223 0
227 -793 -703 0
-227 793 0
-227 703 0
228 -227 -794 0
-228 227 0
-228 794 0
229 -795 -226 0
-229 795 0
-229 226 0
230 -796 -742 0
-230 796 0
-230 742 0
231 -230 -32 0
-231 230 0
-231 32 0
232 -797 -229 0
-232 797 0
-232 229 0
233 -41 -714 0
-233 41 0
-233 714 0
234 -233 -798 0
-234 233 0
-234 798 0
235 -799 -232 0
-235 799 0
-235 232 0
236 -800 -28 0
-236 800 0
-236 28 0
237 -236 -801 0
-237 236 0
-237 801 0
238 -802 -235 0
-238 802 0
-238 235 0
239 -46 -714 0
-239 46 0
-239 714 0
240 -239 -5 0
-240 239 0
-240 5 0
241 -803 -238 0
-241 803 0
-241 238 0
242 -804 -1 0
-242 804 0
-242 1 0
243 -242 -709 0
-243 242 0
-243 709 0
244 -805 -241 0
-244 805 0
-244 241 0
245 -714 -739 0
-245 714 0
-245 739 0
246 -245 -35 0
-246 245 0
-246 35 0
247 -806 -244 0
-247 806 0
-247 244 0
248 -48 -43 0
-248 48 0
-248 43 0
249 -248 -13 0
-249 248 0
-249 13 0
250 -807 -247 0
-250 807 0
-250 247 0
251 -796 -711 0
-251 796 0
-251 711 0
252 -251 -739 0
-252 251 0
-252 739 0
253 -808 -250 0
-253 808 0
-253 250 0
254 -726 -12 0
-254 726 0
-254 12 0
255 -254 -697 0
-255 254 0
-255 697 0
256 -809 -253 0
-256 809 0
-256 253 0
257 -721 -1 0
-257 721 0
-257 1 0
258 -257 -47 0
-258 257 0
-258 47 0
259 -810 -256 0
-259 810 0
-259 256 0
260 -42 -700 0
-260 42 0
-260 700 0
261 -260 -796 0
-261 260 0
-261 796 0
262 -811 -259 0
-262 811 0
-262 259 0
263 -733 -697 0
-263 733 0
-263 697 0
264 -263 -796 0
-264 263 0
-264 796 0
265 -812 -262 0
-265 812 0
-265 262 0
266 -46 -45 0
-266 46 0
-266 45 0
267 -266 -813 0
-267 266 0
-267 813 0
268 -814 -265 0
-268 814 0
-268 265 0
269 -800 -30 0
-269 800 0
-269 30 0
270 -269 -18 0
-270 269 0
-270 18 0
271 -815 -268 0
-271 815 0
-271 268 0
272 -30 -15 0
-272 30 0
-272 15 0
273 -272 -772 0
-273 272 0
-273 772 0
274 -816 -271 0
-274 816 0
-274 271 0
275 -30 -5 0
-275 30 0
-275 5 0
276 -275 -709 0
-276 275 0
-276 709 0
277 -817 -274 0
-277 817 0
-277 274 0
278 -730 -8 0
-278 730 0
-278 8 0
279 -278 -737 0
-279 278 0
-279 737 0
280 -818 -277 0
-280 818 0
-280 277 0
281 -761 -2 0
-281 761 0
-281 2 0
282 -281 -19 0
-282 281 0
-282 19 0
283 -819 -280 0
-283 819 0
-283 280 0
284 -720 -19 0
-284 720 0
-284 19 0
285 -284 -746 0
-285 284 0
-285 746 0
286 -820 -283 0
-286 820 0
-286 283 0
287 -749 -744 0
-287 749 0
-287 744 0
288 -287 -22 0
-288 287 0
-288 22 0
289 -821 -286 0
-289 821 0
-289 286 0
290 -786 -33 0
-290 786 0
-290 33 0
291 -290 -718 0
-291 290 0
-291 718 0
292 -822 -289 0
-292 822 0
-292 289 0
293 -772 -42 0
-293 772 0
-293 42 0
294 -293 -49 0
-294 293 0
-294 49 0
295 -823 -292 0
-295 823 0
-295 292 0
296 -700 -1 0
-296 700 0
-296 1 0
297 -296 -24 0
-297 296 0
-297 24 0
298 -824 -295 0
-298 824 0
-298 295 0
299 -15 -718 0
-299 15 0
-299 718 0
300 -299 -36 0
-300 299 0
-300 36 0
301 -825 -298 0
-301 825 0
-301 298 0
302 -826 -10 0
-302 826 0
-302 10 0
303 -302 -755 0
-303 302 0
-303 755 0
304 -827 -301 0
-304 827 0
-304 301 0
305 -730 -26 0
-305 730 0
-305 26 0
306 -305 -5 0
-306 305 0
-306 5 0
307 -828 -304 0
-307 828 0
-307 304 0
308 -18 -697 0
-308 18 0
-308 697 0
309 -308 -755 0
-309 308 0
-309 755 0
310 -829 -307 0
-310 829 0
-310 307 0
311 -33 -714 0
-311 33 0
-311 714 0
312 -311 -11 0
-312 311 0
-312 11 0
313 -830 -310 0
-313 830 0
-313 310 0
314 -749 -27 0
-314 749 0
-314 27 0
315 -314 -733 0
-315 314 0
-315 733 0
316 -831 -313 0
-316 831 0
-316 313 0
317 -767 -25 0
-317 767 0
-317 25 0
318 -317 -707 0
-318 317 0
-318 707 0
319 -832 -316 0
-319 832 0
-319 316 0
320 -730 -701 0
-320 730 0
-320 701 0
321 -320 -20 0
-321 320 0
-321 20 0
322 -833 -319 0
-322 833 0
-322 319 0
323 -794 -39 0
-323 794 0
-323 39 0
324 -323 -709 0
-324 323 0
-324 709 0
325 -834 -322 0
-325 834 0
-325 322 0
326 -730 -725 0
-326 730 0
-326 725 0
327 -326 -742 0
-327 326 0
-327 742 0
328 -835 -325 0
-328 835 0
-328 325 0
329 -27 -707 0
-329 27 0
-329 707 0
330 -329 -737 0
-330 329 0
-330 737 0
331 -836 -328 0
-331 836 0
-331 328 0
332 -793 -718 0
-332 793 0
-332 718 0
333 -332 -23 0
-333 332 0
-333 23 0
334 -837 -331 0
-334 837 0
-334 331 0
335 -46 -712 0
-335 46 0
-335 712 0
336 -335 -755 0
-336 335 0
-336 755 0
337 -838 -334 0
-337 838 0
-337 334 0
338 -733 -4 0
-338 733 0
-338 4 0
339 -338 -839 0
-339 338 0
-339 839 0
340 -840 -337 0
-340 840 0
-340 337 0
341 -841 -4 0
-341 841 0
-341 4 0
342 -341 -751 0
-342 341 0
-342 751 0
343 -842 -340 0
-343 842 0
-343 340 0
344 -50 -733 0
-344 50 0
-344 733 0
345 -344 -6 0
-345 344 0
-345 6 0
346 -843 -343 0
-346 843 0
-346 343 0
347 -793 -37 0
-347 793 0
-347 37 0
348 -347 -796 0
-348 347 0
-348 796 0
349 -844 -346 0
-349 844 0
-349 346 0
350 -46 -28 0
-350 46 0
-350 28 0
351 -350 -35 0
-351 350 0
-351 35 0
352 -845 -349 0
-352 845 0
-352 349 0
353 -50 -46 0
-353 50 0
-353 46 0
354 -353 -9 0
-354 353 0
-354 9 0
355 -846 -352 0
-355 846 0
-355 352 0
356 -768 -711 0
-356 768 0
-356 711 0
357 -356 -776 0
-357 356 0
-357 776 0
358 -847 -355 0
-358 847 0
-358 355 0
359 -46 -33 0
-359 46 0
-359 33 0
360 -359 -27 0
-360 359 0
-360 27 0
361 -848 -358 0
-361 848 0
-361 358 0
362 -46 -15 0
-362 46 0
-362 15 0
363 -362 -737 0
-363 362 0
-363 737 0
364 -849 -361 0
-364 849 0
-364 361 0
365 -794 -15 0
-365 794 0
-365 15 0
366 -365 -14 0
-366 365 0
-366 14 0
367 -850 -364 0
-367 850 0
-367 364 0
368 -48 -33 0
-368 48 0
-368 33 0
369 -368 -39 0
-369 368 0
-369 39 0
370 -851 -367 0
-370 851 0
-370 367 0
371 -841 -15 0
-371 841 0
-371 15 0
372 -371 -700 0
-372 371 0
-372 700 0
373 -852 -370 0
-373 852 0
-373 370 0
374 -227 -18 0
-374 227 0
-374 18 0
375 -853 -373 0
-375 853 0
-375 373 0
376 -34 -28 0
-376 34 0
-376 28 0
377 -376 -721 0
-377 376 0
-377 721 0
378 -854 -375 0
-378 854 0
-378 375 0
379 -42 -826 0
-379 42 0
-379 826 0
380 -379 -718 0
-380 379 0
-380 718 0
381 -855 -378 0
-381 855 0
-381 378 0
382 -721 -18 0
-382 721 0
-382 18 0
383 -382 -742 0
-383 382 0
-383 742 0
384 -856 -381 0
-384 856 0
-384 381 0
385 -703 -696 0
-385 703 0
-385 696 0
386 -385 -13 0
-386 385 0
-386 13 0
387 -857 -384 0
-387 857 0
-387 384 0
388 -25 -711 0
-388 25 0
-388 711 0
389 -388 -709 0
-389 388 0
-389 709 0
390 -858 -387 0
-390 858 0
-390 387 0
391 -16 -801 0
-391 16 0
-391 801 0
392 -391 -20 0
-392 391 0
-392 20 0
393 -859 -390 0
-393 859 0
-393 390 0
394 -34 -16 0
-394 34 0
-394 16 0
395 -394 -718 0
-395 394 0
-395 718 0
396 -860 -393 0
-396 860 0
-396 393 0
397 -26 -7 0
-397 26 0
-397 7 0
398 -397 -49 0
-398 397 0
-398 49 0
399 -861 -396 0
-399 861 0
-399 396 0
400 -786 -862 0
-400 786 0
-400 862 0
401 -400 -735 0
-401 400 0
-401 735 0
402 -863 -399 0
-402 863 0
-402 399 0
403 -42 -1 0
-403 42 0
-403 1 0
404 -403 -796 0
-404 403 0
-404 796 0
405 -864 -402 0
-405 864 0
-405 402 0
406 -41 -34 0
-406 41 0
-406 34 0
407 -406 -32 0
-407 406 0
-407 32 0
408 -865 -405 0
-408 865 0
-408 405 0
409 -793 -1 0
-409 793 0
-409 1 0
410 -409 -23 0
-410 409 0
-410 23 0
411 -866 -408 0
-411 866 0
-411 408 0
412 -711 -733 0
-412 711 0
-412 733 0
413 -412 -715 0
-413 412 0
-413 715 0
414 -867 -411 0
-414 867 0
-414 411 0
415 -730 -7 0
-415 730 0
-415 7 0
416 -415 -25 0
-416 415 0
-416 25 0
417 -868 -414 0
-417 868 0
-417 414 0
418 -42 -15 0
-418 42 0
-418 15 0
419 -418 -718 0
-419 418 0
-419 718 0
420 -869 -417 0
-420 869 0
-420 417 0
421 -37 -804 0
-421 37 0
-421 804 0
422 -421 -862 0
-422 421 0
-422 862 0
423 -870 -420 0
-423 870 0
-423 420 0
424 -711 -727 0
-424 711 0
-424 727 0
425 -424 -2 0
-425 424 0
-425 2 0
426 -871 -423 0
-426 871 0
-426 423 0
427 -47 -8 0
-427 47 0
-427 8 0
428 -427 -720 0
-428 427 0
-428 720 0
429 -872 -426 0
-429 872 0
-429 426 0
430 -37 -725 0
-430 37 0
-430 725 0
431 -430 -742 0
-431 430 0
-431 742 0
432 -873 -429 0
-432 873 0
-432 429 0
433 -11 -733 0
-433 11 0
-433 733 0
434 -433 -5 0
-434 433 0
-434 5 0
435 -874 -432 0
-435 874 0
-435 432 0
436 -793 -730 0
-436 793 0
-436 730 0
437 -436 -720 0
-437 436 0
-437 720 0
438 -875 -435 0
-438 875 0
-438 435 0
439 -24 -11 0
-439 24 0
-439 11 0
440 -439 -813 0
-440 439 0
-440 813 0
441 -876 -438 0
-441 876 0
-441 438 0
442 -826 -701 0
-442 826 0
-442 701 0
443 -442 -45 0
-443 442 0
-443 45 0
444 -877 -441 0
-444 877 0
-444 441 0
445 -33 -711 0
-445 33 0
-445 711 0
446 -445 -20 0
-446 445 0
-446 20 0
447 -878 -444 0
-447 878 0
-447 444 0
448 -49 -767 0
-448 49 0
-448 767 0
449 -448 -735 0
-449 448 0
-449 735 0
450 -879 -447 0
-450 879 0
-450 447 0
451 -50 -5 0
-451 50 0
-451 5 0
452 -451 -24 0
-452 451 0
-452 24 0
453 -880 -450 0
-453 880 0
-453 450 0
454 -43 -701 0
-454 43 0
-454 701 0
455 -454 -751 0
-455 454 0
-455 751 0
456 -881 -453 0
-456 881 0
-456 453 0
457 -793 -28 0
-457 793 0
-457 28 0
458 -457 -45 0
-458 457 0
-458 45 0
459 -882 -456 0
-459 882 0
-459 456 0
460 -798 -715 0
-460 798 0
-460 715 0
461 -460 -751 0
-461 460 0
-461 751 0
462 -883 -459 0
-462 883 0
-462 459 0
463 -725 -4 0
-463 725 0
-463 4 0
464 -463 -705 0
-464 463 0
-464 705 0
465 -884 -462 0
-465 884 0
-465 462 0
466 -826 -28 0
-466 826 0
-466 28 0
467 -466 -839 0
-467 466 0
-467 839 0
468 -885 -465 0
-468 885 0
-468 465 0
469 -826 -25 0
-469 826 0
-469 25 0
470 -469 -39 0
-470 469 0
-470 39 0
471 -886 -468 0
-471 886 0
-471 468 0
472 -862 -705 0
-472 862 0
-472 705 0
473 -472 -24 0
-473 472 0
-473 24 0
474 -887 -471 0
-474 887 0
-474 471 0
475 -13 -703 0
-475 13 0
-475 703 0
476 -475 -776 0
-476 475 0
-476 776 0
477 -888 -474 0
-477 888 0
-477 474 0
478 -47 -726 0
-478 47 0
-478 726 0
479 -478 -768 0
-479 478 0
-479 768 0
480 -889 -477 0
-480 889 0
-480 477 0
481 -45 -720 0
-481 45 0
-481 720 0
482 -481 -746 0
-482 481 0
-482 746 0
483 -890 -480 0
-483 890 0
-483 480 0
484 -272 -11 0
-484 272 0
-484 11 0
485 -891 -483 0
-485 891 0
-485 483 0
486 -801 -8 0
-486 801 0
-486 8 0
487 -486 -746 0
-487 486 0
-487 746 0
488 -892 -485 0
-488 892 0
-488 485 0
489 -35 -715 0
-489 35 0
-489 715 0
490 -489 -6 0
-490 489 0
-490 6 0
491 -893 -488 0
-491 893 0
-491 488 0
492 -37 -10 0
-492 37 0
-492 10 0
493 -492 -776 0
-493 492 0
-493 776 0
494 -894 -491 0
-494 894 0
-494 491 0
495 -9 -1 0
-495 9 0
-495 1 0
496 -495 -742 0
-496 495 0
-496 742 0
497 -895 -494 0
-497 895 0
-497 494 0
498 -43 -801 0
-498 43 0
-498 801 0
499 -498 -36 0
-499 498 0
-499 36 0
500 -896 -497 0
-500 896 0
-500 497 0
501 -28 -18 0
-501 28 0
-501 18 0
502 -501 -25 0
-502 501 0
-502 25 0
503 -897 -500 0
-503 897 0
-503 500 0
504 -278 -742 0
-504 278 0
-504 742 0
505 -898 -503 0
-505 898 0
-505 503 0
506 -20 -696 0
-506 20 0
-506 696 0
507 -506 -735 0
-507 506 0
-507 735 0
508 -899 -505 0
-508 899 0
-508 505 0
509 -36 -10 0
-509 36 0
-509 10 0
510 -509 -813 0
-510 509 0
-510 813 0
511 -900 -508 0
-511 900 0
-511 508 0
512 -798 -804 0
-512 798 0
-512 804 0
513 -512 -10 0
-513 512 0
-513 10 0
514 -901 -511 0
-514 901 0
-514 511 0
515 -772 -38 0
-515 772 0
-515 38 0
516 -515 -20 0
-516 515 0
-516 20 0
517 -902 -514 0
-517 902 0
-517 514 0
518 -794 -7 0
-518 794 0
-518 7 0
519 -518 -12 0
-519 518 0
-519 12 0
520 -903 -517 0
-520 903 0
-520 517 0
521 -42 -33 0
-521 42 0
-521 33 0
522 -521 -707 0
-522 521 0
-522 707 0
523 -904 -520 0
-523 904 0
-523 520 0
524 -717 -739 0
-524 717 0
-524 739 0
525 -524 -17 0
-525 524 0
-525 17 0
526 -905 -523 0
-526 905 0
-526 523 0
527 -43 -721 0
-527 43 0
-527 721 0
528 -527 -4 0
-528 527 0
-528 4 0
529 -906 -526 0
-529 906 0
-529 526 0
530 -841 -31 0
-530 841 0
-530 31 0
531 -530 -801 0
-531 530 0
-531 801 0
532 -907 -529 0
-532 907 0
-532 529 0
533 -772 -720 0
-533 772 0
-533 720 0
534 -533 -746 0
-534 533 0
-534 746 0
535 -908 -532 0
-535 908 0
-535 532 0
536 -772 -726 0
-536 772 0
-536 726 0
537 -536 -746 0
-537 536 0
-537 746 0
538 -909 -535 0
-538 909 0
-538 535 0
539 -19 -708 0
-539 19 0
-539 708 0
540 -539 -712 0
-540 539 0
-540 712 0
541 -910 -538 0
-541 910 0
-541 538 0
542 -47 -44 0
-542 47 0
-542 44 0
543 -542 -19 0
-543 542 0
-543 19 0
544 -911 -541 0
-544 911 0
-544 541 0
545 -786 -726 0
-545 786 0
-545 726 0
546 -545 -804 0
-546 545 0
-546 804 0
547 -912 -544 0
-547 912 0
-547 544 0
548 -37 -15 0
-548 37 0
-548 15 0
549 -548 -801 0
-549 548 0
-549 801 0
550 -913 -547 0
-550 913 0
-550 547 0
551 -33 -13 0
-551 33 0
-551 13 0
552 -551 -761 0
-552 551 0
-552 761 0
553 -914 -550 0
-553 914 0
-553 550 0
554 -749 -697 0
-554 749 0
-554 697 0
555 -554 -49 0
-555 554 0
-555 49 0
556 -915 -553 0
-556 915 0
-556 553 0
557 -29 -1 0
-557 29 0
-557 1 0
558 -557 -11 0
-558 557 0
-558 11 0
559 -916 -556 0
-559 916 0
-559 556 0
560 -826 -3 0
-560 826 0
-560 3 0
561 -560 -709 0
-561 560 0
-561 709 0
562 -917 -559 0
-562 917 0
-562 559 0
563 -281 -746 0
-563 281 0
-563 746 0
564 -918 -562 0
-564 918 0
-564 562 0
565 -33 -32 0
-565 33 0
-565 32 0
566 -565 -735 0
-566 565 0
-566 735 0
567 -919 -564 0
-567 919 0
-567 564 0
568 -33 -7 0
-568 33 0
-568 7 0
569 -568 -739 0
-569 568 0
-569 739 0
570 -920 -567 0
-570 920 0
-570 567 0
571 -798 -4 0
-571 798 0
-571 4 0
572 -571 -32 0
-572 571 0
-572 32 0
573 -921 -570 0
-573 921 0
-573 570 0
574 -737 -19 0
-574 737 0
-574 19 0
575 -574 -35 0
-575 574 0
-575 35 0
576 -922 -573 0
-576 922 0
-576 573 0
577 -31 -742 0
-577 31 0
-577 742 0
578 -577 -24 0
-578 577 0
-578 24 0
579 -923 -576 0
-579 923 0
-579 576 0
580 -46 -730 0
-580 46 0
-580 730 0
581 -580 -717 0
-581 580 0
-581 717 0
582 -924 -579 0
-582 924 0
-582 579 0
583 -18 -839 0
-583 18 0
-583 839 0
584 -583 -3 0
-584 583 0
-584 3 0
585 -925 -582 0
-585 925 0
-585 582 0
586 -400 -38 0
-586 400 0
-586 38 0
587 -926 -585 0
-587 926 0
-587 585 0
588 -725 -28 0
-588 725 0
-588 28 0
589 -588 -700 0
-589 588 0
-589 700 0
590 -927 -587 0
-590 927 0
-590 587 0
591 -804 -801 0
-591 804 0
-591 801 0
592 -591 -13 0
-592 591 0
-592 13 0
593 -928 -590 0
-593 928 0
-593 590 0
594 -804 -31 0
-594 804 0
-594 31 0
595 -594 -32 0
-595 594 0
-595 32 0
596 -929 -593 0
-596 929 0
-596 593 0
597 -800 -23 0
-597 800 0
-597 23 0
598 -597 -813 0
-598 597 0
-598 813 0
599 -930 -596 0
-599 930 0
-599 596 0
600 -18 -703 0
-600 18 0
-600 703 0
601 -600 -742 0
-601 600 0
-601 742 0
602 -931 -599 0
-602 931 0
-602 599 0
603 -62 -709 0
-603 62 0
-603 709 0
604 -932 -602 0
-604 932 0
-604 602 0
605 -725 -7 0
-605 725 0
-605 7 0
606 -605 -801 0
-606 605 0
-606 801 0
607 -933 -604 0
-607 933 0
-607 604 0
608 -22 -11 0
-608 22 0
-608 11 0
609 -608 -35 0
-609 608 0
-609 35 0
610 -934 -607 0
-610 934 0
-610 607 0
611 -862 -23 0
-611 862 0
-611 23 0
612 -611 -712 0
-612 611 0
-612 712 0
613 -935 -610 0
-613 935 0
-613 610 0
614 -841 -25 0
-614 841 0
-614 25 0
615 -614 -8 0
-615 614 0
-615 8 0
616 -936 -613 0
-616 936 0
-616 613 0
617 -311 -801 0
-617 311 0
-617 801 0
618 -937 -616 0
-618 937 0
-618 616 0
619 -800 -726 0
-619 800 0
-619 726 0
620 -619 -717 0
-620 619 0
-620 717 0
621 -938 -618 0
-621 938 0
-621 618 0
622 -721 -697 0
-622 721 0
-622 697 0
623 -622 -6 0
-623 622 0
-623 6 0
624 -939 -621 0
-624 939 0
-624 621 0
625 -714 -18 0
-625 714 0
-625 18 0
626 -625 -39 0
-626 625 0
-626 39 0
627 -940 -624 0
-627 940 0
-627 624 0
628 -862 -42 0
-628 862 0
-628 42 0
629 -628 -36 0
-629 628 0
-629 36 0
630 -941 -627 0
-630 941 0
-630 627 0
631 -794 -826 0
-631 794 0
-631 826 0
632 -631 -32 0
-632 631 0
-632 32 0
633 -942 -630 0
-633 942 0
-633 630 0
634 -826 -31 0
-634 826 0
-634 31 0
635 -634 -709 0
-635 634 0
-635 709 0
636 -943 -633 0
-636 943 0
-636 633 0
637 -841 -29 0
-637 841 0
-637 29 0
638 -637 -746 0
-638 637 0
-638 746 0
639 -944 -636 0
-639 944 0
-639 636 0
640 -34 -703 0
-640 34 0
-640 703 0
641 -640 -17 0
-641 640 0
-641 17 0
642 -945 -639 0
-642 945 0
-642 639 0
643 -772 -714 0
-643 772 0
-643 714 0
644 -643 -17 0
-644 643 0
-644 17 0
645 -946 -642 0
-645 946 0
-645 642 0
646 -793 -9 0
-646 793 0
-646 9 0
647 -646 -13 0
-647 646 0
-647 13 0
648 -947 -645 0
-648 947 0
-648 645 0
649 -545 -705 0
-649 545 0
-649 705 0
650 -948 -648 0
-650 948 0
-650 648 0
651 -794 -708 0
-651 794 0
-651 708 0
652 -651 -751 0
-652 651 0
-652 751 0
653 -949 -650 0
-653 949 0
-653 650 0
654 -767 -15 0
-654 767 0
-654 15 0
655 -654 -6 0
-655 654 0
-655 6 0
656 -950 -653 0
-656 950 0
-656 653 0
657 -38 -705 0
-657 38 0
-657 705 0
658 -657 -776 0
-658 657 0
-658 776 0
659 -951 -656 0
-659 951 0
-659 656 0
660 -729 -717 0
-660 729 0
-660 717 0
661 -660 -735 0
-661 660 0
-661 735 0
662 -952 -659 0
-662 952 0
-662 659 0
663 -798 -725 0
-663 798 0
-663 725 0
664 -663 -42 0
-664 663 0
-664 42 0
665 -953 -662 0
-665 953 0
-665 662 0
666 -800 -9 0
-666 800 0
-666 9 0
667 -666 -709 0
-667 666 0
-667 709 0
668 -954 -665 0
-668 954 0
-668 665 0
669 -794 -10 0
-669 794 0
-669 10 0
670 -669 -19 0
-670 669 0
-670 19 0
671 -955 -668 0
-671 955 0
-671 668 0
672 -793 -23 0
-672 793 0
-672 23 0
673 -672 -36 0
-673 672 0
-673 36 0
674 -956 -671 0
-674 956 0
-674 671 0
675 -7 -697 0
-675 7 0
-675 697 0
676 -675 -22 0
-676 675 0
-676 22 0
677 -957 -674 0
-677 957 0
-677 674 0
678 -798 -705 0
-678 798 0
-678 705 0
679 -678 -17 0
-679 678 0
-679 17 0
680 -958 -677 0
-680 958 0
-680 677 0
681 -730 -776 0
-681 730 0
-681 776 0
682 -681 -20 0
-682 681 0
-682 20 0
683 -959 -680 0
-683 959 0
-683 680 0
684 -46 -41 0
-684 46 0
-684 41 0
685 -684 -739 0
-685 684 0
-685 739 0
686 -960 -683 0
-686 960 0
-686 683 0
687 -27 -11 0
-687 27 0
-687 11 0
688 -687 -49 0
-688 687 0
-688 49 0
689 -961 -686 0
-689 961 0
-689 686 0
690 -44 -767 0
-690 44 0
-690 767 0
691 -690 -19 0
-691 690 0
-691 19 0
692 -962 -689 0
-692 962 0
-692 689 0
693 -826 -708 0
-693 826 0
-693 708 0
694 -693 -796 0
-694 693 0
-694 796 0
695 -963 -692 0
-695 963 0
-695 692 0
-696 -1 0
696 1 0
-697 -4 0
697 4 0
-698 -54 0
698 54 0
-699 -52 0
699 52 0
-700 -7 0
700 7 0
-701 -9 0
701 9 0
-702 -57 0
702 57 0
-703 -10 0
703 10 0
-704 -60 0
704 60 0
-705 -14 0
705 14 0
-706 -63 0
706 63 0
-707 -16 0
707 16 0
-708 -15 0
708 15 0
-709 -17 0
709 17 0
-710 -66 0
710 66 0
-711 -18 0
711 18 0
-712 -20 0
712 20 0
-713 -69 0
713 69 0
-714 -21 0
714 21 0
-715 -22 0
715 22 0
-716 -72 0
716 72 0
-717 -23 0
717 23 0
-718 -13 0
718 13 0
-719 -75 0
719 75 0
-720 -26 0
720 26 0
-721 -25 0
721 25 0
-722 -78 0
722 78 0
-723 -81 0
723 81 0
-724 -84 0
724 84 0
-725 -29 0
725 29 0
-726 -28 0
726 28 0
-727 -11 0
727 11 0
-728 -87 0
728 87 0
-729 -31 0
729 31 0
-730 -30 0
730 30 0
-731 -90 0
731 90 0
-732 -93 0
732 93 0
-733 -8 0
733 8 0
-734 -96 0
734 96 0
-735 -35 0
735 35 0
-736 -99 0
736 99 0
-737 -32 0
737 32 0
-738 -102 0
738 102 0
-739 -3 0
739 3 0
-740 -105 0
740 105 0
-741 -108 0
741 108 0
-742 -5 0
742 5 0
-743 -111 0
743 111 0
-744 -37 0
744 37 0
-745 -114 0
745 114 0
-746 -39 0
746 39 0
-747 -117 0
747 117 0
-748 -120 0
748 120 0
-749 -40 0
749 40 0
-750 -123 0
750 123 0
-751 -36 0
751 36 0
-752 -126 0
752 126 0
-753 -129 0
753 129 0
-754 -132 0
754 132 0
-755 -24 0
755 24 0
-756 -135 0
756 135 0
-757 -138 0
757 138 0
-758 -141 0
758 141 0
-759 -144 0
759 144 0
-760 -147 0
760 147 0
-761 -38 0
761 38 0
-762 -150 0
762 150 0
-763 -153 0
763 153 0
-764 -156 0
764 156 0
-765 -159 0
765 159 0
-766 -162 0
766 162 0
-767 -27 0
767 27 0
-768 -43 0
768 43 0
-769 -165 0
769 165 0
-770 -168 0
770 168 0
-771 -171 0
771 171 0
-772 -47 0
772 47 0
-773 -174 0
773 174 0
-774 -177 0
774 177 0
-775 -180 0
775 180 0
-776 -19 0
776 19 0
-777 -183 0
777 183 0
-778 -186 0
778 186 0
-779 -189 0
779 189 0
-780 -192 0
780 192 0
-781 -195 0
781 195 0
-782 -198 0
782 198 0
-783 -201 0
783 201 0
-784 -204 0
784 204 0
-785 -207 0
785 207 0
-786 -48 0
786 48 0
-787 -210 0
787 210 0
-788 -213 0
788 213 0
-789 -216 0
789 216 0
-790 -219 0
790 219 0
-791 -222 0
791 222 0
-792 -225 0
792 225 0
-793 -46 0
793 46 0
-794 -42 0
794 42 0
-795 -228 0
795 228 0
-796 -49 0
796 49 0
-797 -231 0
797 231 0
-798 -50 0
798 50 0
-799 -234 0
799 234 0
-800 -44 0
800 44 0
-801 -12 0
801 12 0
-802 -237 0
802 237 0
-803 -240 0
803 240 0
-804 -34 0
804 34 0
-805 -243 0
805 243 0
-806 -246 0
806 246 0
-807 -249 0
807 249 0
-808 -252 0
808 252 0
-809 -255 0
809 255 0
-810 -258 0
810 258 0
-811 -261 0
811 261 0
-812 -264 0
812 264 0
-813 -6 0
813 6 0
-814 -267 0
814 267 0
-815 -270 0
815 270 0
-816 -273 0
816 273 0
-817 -276 0
817 276 0
-818 -279 0
818 279 0
-819 -282 0
819 282 0
-820 -285 0
820 285 0
-821 -288 0
821 288 0
-822 -291 0
822 291 0
-823 -294 0
823 294 0
-824 -297 0
824 297 0
-825 -300 0
825 300 0
-826 -33 0
826 33 0
-827 -303 0
827 303 0
-828 -306 0
828 306 0
-829 -309 0
829 309 0
-830 -312 0
830 312 0
-831 -315 0
831 315 0
-832 -318 0
832 318 0
-833 -321 0
833 321 0
-834 -324 0
834 324 0
-835 -327 0
835 327 0
-836 -330 0
836 330 0
-837 -333 0
837 333 0
-838 -336 0
838 336 0
-839 -2 0
839 2 0
-840 -339 0
840 339 0
-841 -41 0
841 41 0
-842 -342 0
842 342 0
-843 -345 0
843 345 0
-844 -348 0
844 348 0
-845 -351 0
845 351 0
-846 -354 0
846 354 0
-847 -357 0
847 357 0
-848 -360 0
848 360 0
-849 -363 0
849 363 0
-850 -366 0
850 366 0
-851 -369 0
851 369 0
-852 -372 0
852 372 0
-853 -374 0
853 374 0
-854 -377 0
854 377 0
-855 -380 0
855 380 0
-856 -383 0
856 383 0
-857 -386 0
857 386 0
-858 -389 0
858 389 0
-859 -392 0
859 392 0
-860 -395 0
860 395 0
-861 -398 0
861 398 0
-862 -45 0
862 45 0
-863 -401 0
863 401 0
-864 -404 0
864 404 0
-865 -407 0
865 407 0
-866 -410 0
866 410 0
-867 -413 0
867 413 0
-868 -416 0
868 416 0
-869 -419 0
869 419 0
-870 -422 0
870 422 0
-871 -425 0
871 425 0
-872 -428 0
872 428 0
-873 -431 0
873 431 0
-874 -434 0
874 434 0
-875 -437 0
875 437 0
-876 -440 0
876 440 0
-877 -443 0
877 443 0
-878 -446 0
878 446 0
-879 -449 0
879 449 0
-880 -452 0
880 452 0
-881 -455 0
881 455 0
-882 -458 0
882 458 0
-883 -461 0
883 461 0
-884 -464 0
884 464 0
-885 -467 0
885 467 0
-886 -470 0
886 470 0
-887 -473 0
887 473 0
-888 -476 0
888 476 0
-889 -479 0
889 479 0
-890 -482 0
890 482 0
-891 -484 0
891 484 0
-892 -487 0
892 487 0
-893 -490 0
893 490 0
-894 -493 0
894 493 0
-895 -496 0
895 496 0
-896 -499 0
896 499 0
-897 -502 0
897 502 0
-898 -504 0
898 504 0
-899 -507 0
899 507 0
-900 -510 0
900 510 0
-901 -513 0
901 513 0
-902 -516 0
902 516 0
-903 -519 0
903 519 0
-904 -522 0
904 522 0
-905 -525 0
905 525 0
-906 -528 0
906 528 0
-907 -531 0
907 531 0
-908 -534 0
908 534 0
-909 -537 0
909 537 0
-910 -540 0
910 540 0
-911 -543 0
911 543 0
-912 -546 0
912 546 0
-913 -549 0
913 549 0
-914 -552 0
914 552 0
-915 -555 0
915 555 0
-916 -558 0
916 558 0
-917 -561 0
917 561 0
-918 -563 0
918 563 0
-919 -566 0
919 566 0
-920 -569 0
920 569 0
-921 -572 0
921 572 0
-922 -575 0
922 575 0
-923 -578 0
923 578 0
-924 -581 0
924 581 0
-925 -584 0
925 584 0
-926 -586 0
926 586 0
-927 -589 0
927 589 0
-928 -592 0
928 592 0
-929 -595 0
929 595 0
-930 -598 0
930 598 0
-931 -601 0
931 601 0
-932 -603 0
932 603 0
-933 -606 0
933 606 0
-934 -609 0
934 609 0
-935 -612 0
935 612 0
-936 -615 0
936 615 0
-937 -617 0
937 617 0
-938 -620 0
938 620 0
-939 -623 0
939 623 0
-940 -626 0
940 626 0
-941 -629 0
941 629 0
-942 -632 0
942 632 0
-943 -635 0
943 635 0
-944 -638 0
944 638 0
-945 -641 0
945 641 0
-946 -644 0
946 644 0
-947 -647 0
947 647 0
-948 -649 0
948 649 0
-949 -652 0
949 652 0
-950 -655 0
950 655 0
-951 -658 0
951 658 0
-952 -661 0
952 661 0
-953 -664 0
953 664 0
-954 -667 0
954 667 0
-955 -670 0
955 670 0
-956 -673 0
956 673 0
-957 -676 0
957 676 0
-958 -679 0
958 679 0
-959 -682 0
959 682 0
-960 -685 0
960 685 0
-961 -688 0
961 688 0
-962 -691 0
962 691 0
-963 -694 0
963 694 0
695 0
